* Signature: 0xce5394f8ec79ad1e
NAME Extended ILP
OBJSENSE MAX
ROWS
 N  OBJ
 G  R0      
 G  R1      
 G  R2      
 G  R3      
 G  R4      
 G  R5      
 G  R6      
 G  R7      
 G  R8      
 G  R9      
 G  R10     
 G  R11     
 G  R12     
 G  R13     
 G  R14     
 G  R15     
 G  R16     
 G  R17     
 G  R18     
 G  R19     
 G  R20     
 G  R21     
 G  R22     
 G  R23     
 G  R24     
 G  R25     
 G  R26     
 G  R27     
 G  R28     
 G  R29     
 G  R30     
 G  R31     
 G  R32     
 G  R33     
 G  R34     
 G  R35     
 G  R36     
 G  R37     
 G  R38     
 G  R39     
 G  R40     
 G  R41     
 G  R42     
 G  R43     
 G  R44     
 G  R45     
 G  R46     
 G  R47     
 L  R48     
COLUMNS
    MARKER    'MARKER'                 'INTORG'
    A[0]      OBJ       1
    A[0]      R0        17
    A[0]      R1        132
    A[0]      R2        612
    A[0]      R3        1842
    A[0]      R4        3570
    A[0]      R5        3668
    A[0]      R6        -1292
    A[0]      R7        -11457
    A[0]      R8        -19057
    A[0]      R9        -12920
    A[0]      R10       7752
    A[0]      R11       27132
    A[0]      R12       27132
    A[0]      R13       7752
    A[0]      R14       -12920
    A[0]      R15       -19057
    A[0]      R16       -11457
    A[0]      R17       -1292
    A[0]      R18       3668
    A[0]      R19       3570
    A[0]      R20       1842
    A[0]      R21       612
    A[0]      R22       132
    A[0]      R23       17
    A[0]      R24       1
    A[0]      R25       2616
    A[0]      R26       49560
    A[0]      R27       173432
    A[0]      R28       481992
    A[0]      R29       1093032
    A[0]      R30       2062032
    A[0]      R31       3281680
    A[0]      R32       4449648
    A[0]      R33       5173168
    A[0]      R34       5173168
    A[0]      R35       4449648
    A[0]      R36       3281680
    A[0]      R37       2062032
    A[0]      R38       1093032
    A[0]      R39       481992
    A[0]      R40       173432
    A[0]      R41       49560
    A[0]      R42       10808
    A[0]      R43       1688
    A[0]      R44       168
    A[0]      R45       8
    A[0]      R47       1
    A[0]      R48       1
    A[1]      OBJ       1
    A[1]      R0        15
    A[1]      R1        100
    A[1]      R2        380
    A[1]      R3        850
    A[1]      R4        878
    A[1]      R5        -780
    A[1]      R6        -4180
    A[1]      R7        -5985
    A[1]      R8        -1615
    A[1]      R9        7752
    A[1]      R10       12920
    A[1]      R11       6460
    A[1]      R12       -6460
    A[1]      R13       -12920
    A[1]      R14       -7752
    A[1]      R15       1615
    A[1]      R16       5985
    A[1]      R17       4180
    A[1]      R18       780
    A[1]      R19       -878
    A[1]      R20       -850
    A[1]      R21       -380
    A[1]      R22       -100
    A[1]      R23       -15
    A[1]      R24       -1
    A[1]      R25       11800
    A[1]      R26       44060
    A[1]      R27       177880
    A[1]      R28       484880
    A[1]      R29       1087560
    A[1]      R30       2044590
    A[1]      R31       3261008
    A[1]      R32       4444480
    A[1]      R33       5193840
    A[1]      R34       5206760
    A[1]      R35       4470320
    A[1]      R36       3276512
    A[1]      R37       2041360
    A[1]      R38       1075590
    A[1]      R39       476520
    A[1]      R40       176320
    A[1]      R41       54008
    A[1]      R42       13500
    A[1]      R43       2680
    A[1]      R44       400
    A[1]      R45       40
    A[1]      R46       2
    A[1]      R47       1
    A[1]      R48       1
    A[2]      OBJ       1
    A[2]      R0        13
    A[2]      R1        72
    A[2]      R2        208
    A[2]      R3        262
    A[2]      R4        -234
    A[2]      R5        -1424
    A[2]      R6        -1976
    A[2]      R7        171
    A[2]      R8        4199
    A[2]      R9        5168
    A[2]      R11       -6460
    A[2]      R12       -6460
    A[2]      R14       5168
    A[2]      R15       4199
    A[2]      R16       171
    A[2]      R17       -1976
    A[2]      R18       -1424
    A[2]      R19       -234
    A[2]      R20       262
    A[2]      R21       208
    A[2]      R22       72
    A[2]      R23       13
    A[2]      R24       1
    A[2]      R25       12388
    A[2]      R26       53364
    A[2]      R27       170332
    A[2]      R28       482676
    A[2]      R29       1081404
    A[2]      R30       2038776
    A[2]      R31       3263592
    A[2]      R32       4457400
    A[2]      R33       5206760
    A[2]      R34       5206760
    A[2]      R35       4457400
    A[2]      R36       3263592
    A[2]      R37       2038776
    A[2]      R38       1081404
    A[2]      R39       482676
    A[2]      R40       178524
    A[2]      R41       53364
    A[2]      R42       12388
    A[2]      R43       2092
    A[2]      R44       228
    A[2]      R45       12
    A[2]      R47       1
    A[2]      R48       1
    A[3]      OBJ       1
    A[3]      R0        11
    A[3]      R1        48
    A[3]      R2        88
    A[3]      R3        -34
    A[3]      R4        -462
    A[3]      R5        -728
    A[3]      R6        176
    A[3]      R7        1971
    A[3]      R8        2057
    A[3]      R9        -1088
    A[3]      R10       -4080
    A[3]      R11       -2380
    A[3]      R12       2380
    A[3]      R13       4080
    A[3]      R14       1088
    A[3]      R15       -2057
    A[3]      R16       -1971
    A[3]      R17       -176
    A[3]      R18       728
    A[3]      R19       462
    A[3]      R20       34
    A[3]      R21       -88
    A[3]      R22       -48
    A[3]      R23       -11
    A[3]      R24       -1
    A[3]      R25       12684
    A[3]      R26       53592
    A[3]      R27       177828
    A[3]      R28       472332
    A[3]      R29       1079604
    A[3]      R30       2040918
    A[3]      R31       3269848
    A[3]      R32       4461480
    A[3]      R33       5202680
    A[3]      R34       5197920
    A[3]      R35       4453320
    A[3]      R36       3267672
    A[3]      R37       2045032
    A[3]      R38       1083546
    A[3]      R39       480876
    A[3]      R40       176372
    A[3]      R41       52668
    A[3]      R42       12616
    A[3]      R43       2388
    A[3]      R44       348
    A[3]      R45       36
    A[3]      R46       2
    A[3]      R47       1
    A[3]      R48       1
    A[4]      OBJ       1
    A[4]      R0        9
    A[4]      R1        28
    A[4]      R2        12
    A[4]      R3        -134
    A[4]      R4        -294
    A[4]      R5        28
    A[4]      R6        876
    A[4]      R7        919
    A[4]      R8        -833
    A[4]      R9        -2312
    A[4]      R10       -680
    A[4]      R11       2380
    A[4]      R12       2380
    A[4]      R13       -680
    A[4]      R14       -2312
    A[4]      R15       -833
    A[4]      R16       919
    A[4]      R17       876
    A[4]      R18       28
    A[4]      R19       -294
    A[4]      R20       -134
    A[4]      R21       12
    A[4]      R22       28
    A[4]      R23       9
    A[4]      R24       1
    A[4]      R25       12784
    A[4]      R26       53424
    A[4]      R27       177072
    A[4]      R28       479824
    A[4]      R29       1072464
    A[4]      R30       2043808
    A[4]      R31       3271072
    A[4]      R32       4458080
    A[4]      R33       5197920
    A[4]      R34       5197920
    A[4]      R35       4458080
    A[4]      R36       3271072
    A[4]      R37       2043808
    A[4]      R38       1080656
    A[4]      R39       479824
    A[4]      R40       177072
    A[4]      R41       53424
    A[4]      R42       12784
    A[4]      R43       2288
    A[4]      R44       272
    A[4]      R45       16
    A[4]      R47       1
    A[4]      R48       1
    A[5]      OBJ       1
    A[5]      R0        7
    A[5]      R1        12
    A[5]      R2        -28
    A[5]      R3        -118
    A[5]      R4        -42
    A[5]      R5        364
    A[5]      R6        484
    A[5]      R7        -441
    A[5]      R8        -1311
    A[5]      R9        -168
    A[5]      R10       1800
    A[5]      R11       1260
    A[5]      R12       -1260
    A[5]      R13       -1800
    A[5]      R14       168
    A[5]      R15       1311
    A[5]      R16       441
    A[5]      R17       -484
    A[5]      R18       -364
    A[5]      R19       42
    A[5]      R20       118
    A[5]      R21       28
    A[5]      R22       -12
    A[5]      R23       -7
    A[5]      R24       -1
    A[5]      R25       12768
    A[5]      R26       53172
    A[5]      R27       176736
    A[5]      R28       480216
    A[5]      R29       1082016
    A[5]      R30       2036094
    A[5]      R31       3268928
    A[5]      R32       4455600
    A[5]      R33       5199040
    A[5]      R34       5201560
    A[5]      R35       4459200
    A[5]      R36       3268592
    A[5]      R37       2041664
    A[5]      R38       1081134
    A[5]      R39       481184
    A[5]      R40       177464
    A[5]      R41       53088
    A[5]      R42       12532
    A[5]      R43       2272
    A[5]      R44       312
    A[5]      R45       32
    A[5]      R46       2
    A[5]      R47       1
    A[5]      R48       1
    A[6]      OBJ       1
    A[6]      R0        5
    A[6]      R2        -40
    A[6]      R3        -50
    A[6]      R4        126
    A[6]      R5        280
    A[6]      R6        -160
    A[6]      R7        -765
    A[6]      R8        -105
    A[6]      R9        1248
    A[6]      R10       720
    A[6]      R11       -1260
    A[6]      R12       -1260
    A[6]      R13       720
    A[6]      R14       1248
    A[6]      R15       -105
    A[6]      R16       -765
    A[6]      R17       -160
    A[6]      R18       280
    A[6]      R19       126
    A[6]      R20       -50
    A[6]      R21       -40
    A[6]      R23       5
    A[6]      R24       1
    A[6]      R25       12700
    A[6]      R26       53004
    A[6]      R27       176820
    A[6]      R28       480860
    A[6]      R29       1082340
    A[6]      R30       2043080
    A[6]      R31       3259320
    A[6]      R32       4456680
    A[6]      R33       5201560
    A[6]      R34       5201560
    A[6]      R35       4456680
    A[6]      R36       3267512
    A[6]      R37       2043080
    A[6]      R38       1082340
    A[6]      R39       480860
    A[6]      R40       176820
    A[6]      R41       53004
    A[6]      R42       12700
    A[6]      R43       2340
    A[6]      R44       300
    A[6]      R45       20
    A[6]      R47       1
    A[6]      R48       1
    A[7]      OBJ       1
    A[7]      R0        3
    A[7]      R1        -8
    A[7]      R2        -32
    A[7]      R3        22
    A[7]      R4        154
    A[7]      R6        -440
    A[7]      R7        -165
    A[7]      R8        825
    A[7]      R9        528
    A[7]      R10       -1056
    A[7]      R11       -924
    A[7]      R12       924
    A[7]      R13       1056
    A[7]      R14       -528
    A[7]      R15       -825
    A[7]      R16       165
    A[7]      R17       440
    A[7]      R19       -154
    A[7]      R20       -22
    A[7]      R21       32
    A[7]      R22       8
    A[7]      R23       -3
    A[7]      R24       -1
    A[7]      R25       12628
    A[7]      R26       52976
    A[7]      R27       177100
    A[7]      R28       481140
    A[7]      R29       1081740
    A[7]      R30       2042150
    A[7]      R31       3268232
    A[7]      R32       4450264
    A[7]      R33       5201224
    A[7]      R34       5199376
    A[7]      R35       4456344
    A[7]      R36       3269288
    A[7]      R37       2043800
    A[7]      R38       1081410
    A[7]      R39       480260
    A[7]      R40       177100
    A[7]      R41       53284
    A[7]      R42       12672
    A[7]      R43       2268
    A[7]      R44       292
    A[7]      R45       28
    A[7]      R46       2
    A[7]      R47       1
    A[7]      R48       1
    A[8]      OBJ       1
    A[8]      R0        1
    A[8]      R1        -12
    A[8]      R2        -12
    A[8]      R3        66
    A[8]      R4        66
    A[8]      R5        -220
    A[8]      R6        -220
    A[8]      R7        495
    A[8]      R8        495
    A[8]      R9        -792
    A[8]      R10       -792
    A[8]      R11       924
    A[8]      R12       924
    A[8]      R13       -792
    A[8]      R14       -792
    A[8]      R15       495
    A[8]      R16       495
    A[8]      R17       -220
    A[8]      R18       -220
    A[8]      R19       66
    A[8]      R20       66
    A[8]      R21       -12
    A[8]      R22       -12
    A[8]      R23       1
    A[8]      R24       1
    A[8]      R25       12584
    A[8]      R26       53064
    A[8]      R27       177320
    A[8]      R28       480920
    A[8]      R29       1081080
    A[8]      R30       2042480
    A[8]      R31       3269552
    A[8]      R32       4458192
    A[8]      R33       5191184
    A[8]      R34       5199376
    A[8]      R35       4458192
    A[8]      R36       3269552
    A[8]      R37       2042480
    A[8]      R38       1081080
    A[8]      R39       480920
    A[8]      R40       177320
    A[8]      R41       53064
    A[8]      R42       12584
    A[8]      R43       2312
    A[8]      R44       312
    A[8]      R45       24
    A[8]      R47       1
    A[8]      R48       1
    A[9]      OBJ       1
    A[9]      R0        -1
    A[9]      R1        -12
    A[9]      R2        12
    A[9]      R3        66
    A[9]      R4        -66
    A[9]      R5        -220
    A[9]      R6        220
    A[9]      R7        495
    A[9]      R8        -495
    A[9]      R9        -792
    A[9]      R10       792
    A[9]      R11       924
    A[9]      R12       -924
    A[9]      R13       -792
    A[9]      R14       792
    A[9]      R15       495
    A[9]      R16       -495
    A[9]      R17       -220
    A[9]      R18       220
    A[9]      R19       66
    A[9]      R20       -66
    A[9]      R21       -12
    A[9]      R22       12
    A[9]      R23       1
    A[9]      R24       -1
    A[9]      R25       12584
    A[9]      R26       53196
    A[9]      R27       177320
    A[9]      R28       480480
    A[9]      R29       1081080
    A[9]      R30       2043470
    A[9]      R31       3269552
    A[9]      R32       4456608
    A[9]      R33       5199376
    A[9]      R34       5193032
    A[9]      R35       4458192
    A[9]      R36       3267968
    A[9]      R37       2042480
    A[9]      R38       1082070
    A[9]      R39       480920
    A[9]      R40       176880
    A[9]      R41       53064
    A[9]      R42       12716
    A[9]      R43       2312
    A[9]      R44       288
    A[9]      R45       24
    A[9]      R46       2
    A[9]      R47       1
    A[9]      R48       1
    A[10]     OBJ       1
    A[10]     R0        -3
    A[10]     R1        -8
    A[10]     R2        32
    A[10]     R3        22
    A[10]     R4        -154
    A[10]     R6        440
    A[10]     R7        -165
    A[10]     R8        -825
    A[10]     R9        528
    A[10]     R10       1056
    A[10]     R11       -924
    A[10]     R12       -924
    A[10]     R13       1056
    A[10]     R14       528
    A[10]     R15       -825
    A[10]     R16       -165
    A[10]     R17       440
    A[10]     R19       -154
    A[10]     R20       22
    A[10]     R21       32
    A[10]     R22       -8
    A[10]     R23       -3
    A[10]     R24       1
    A[10]     R25       12628
    A[10]     R26       53284
    A[10]     R27       177100
    A[10]     R28       480260
    A[10]     R29       1081740
    A[10]     R30       2043800
    A[10]     R31       3268232
    A[10]     R32       4456344
    A[10]     R33       5201224
    A[10]     R34       5201224
    A[10]     R35       4448152
    A[10]     R36       3268232
    A[10]     R37       2043800
    A[10]     R38       1081740
    A[10]     R39       480260
    A[10]     R40       177100
    A[10]     R41       53284
    A[10]     R42       12628
    A[10]     R43       2268
    A[10]     R44       308
    A[10]     R45       28
    A[10]     R47       1
    A[10]     R48       1
    A[11]     OBJ       1
    A[11]     R0        -5
    A[11]     R2        40
    A[11]     R3        -50
    A[11]     R4        -126
    A[11]     R5        280
    A[11]     R6        160
    A[11]     R7        -765
    A[11]     R8        105
    A[11]     R9        1248
    A[11]     R10       -720
    A[11]     R11       -1260
    A[11]     R12       1260
    A[11]     R13       720
    A[11]     R14       -1248
    A[11]     R15       -105
    A[11]     R16       765
    A[11]     R17       -160
    A[11]     R18       -280
    A[11]     R19       126
    A[11]     R20       50
    A[11]     R21       -40
    A[11]     R23       5
    A[11]     R24       -1
    A[11]     R25       12700
    A[11]     R26       53256
    A[11]     R27       176820
    A[11]     R28       480540
    A[11]     R29       1082340
    A[11]     R30       2042870
    A[11]     R31       3267512
    A[11]     R32       4458120
    A[11]     R33       5201560
    A[11]     R34       5199040
    A[11]     R35       4456680
    A[11]     R36       3261816
    A[11]     R37       2043080
    A[11]     R38       1080810
    A[11]     R39       480860
    A[11]     R40       177380
    A[11]     R41       53004
    A[11]     R42       12600
    A[11]     R43       2340
    A[11]     R44       300
    A[11]     R45       20
    A[11]     R46       2
    A[11]     R47       1
    A[11]     R48       1
    A[12]     OBJ       1
    A[12]     R0        -7
    A[12]     R1        12
    A[12]     R2        28
    A[12]     R3        -118
    A[12]     R4        42
    A[12]     R5        364
    A[12]     R6        -484
    A[12]     R7        -441
    A[12]     R8        1311
    A[12]     R9        -168
    A[12]     R10       -1800
    A[12]     R11       1260
    A[12]     R12       1260
    A[12]     R13       -1800
    A[12]     R14       -168
    A[12]     R15       1311
    A[12]     R16       -441
    A[12]     R17       -484
    A[12]     R18       364
    A[12]     R19       42
    A[12]     R20       -118
    A[12]     R21       28
    A[12]     R22       12
    A[12]     R23       -7
    A[12]     R24       1
    A[12]     R25       12768
    A[12]     R26       53088
    A[12]     R27       176736
    A[12]     R28       481184
    A[12]     R29       1082016
    A[12]     R30       2041664
    A[12]     R31       3268928
    A[12]     R32       4459200
    A[12]     R33       5199040
    A[12]     R34       5199040
    A[12]     R35       4459200
    A[12]     R36       3268928
    A[12]     R37       2033472
    A[12]     R38       1082016
    A[12]     R39       481184
    A[12]     R40       176736
    A[12]     R41       53088
    A[12]     R42       12768
    A[12]     R43       2272
    A[12]     R44       288
    A[12]     R45       32
    A[12]     R47       1
    A[12]     R48       1
    A[13]     OBJ       1
    A[13]     R0        -9
    A[13]     R1        28
    A[13]     R2        -12
    A[13]     R3        -134
    A[13]     R4        294
    A[13]     R5        28
    A[13]     R6        -876
    A[13]     R7        919
    A[13]     R8        833
    A[13]     R9        -2312
    A[13]     R10       680
    A[13]     R11       2380
    A[13]     R12       -2380
    A[13]     R13       -680
    A[13]     R14       2312
    A[13]     R15       -833
    A[13]     R16       -919
    A[13]     R17       876
    A[13]     R18       -28
    A[13]     R19       -294
    A[13]     R20       134
    A[13]     R21       12
    A[13]     R22       -28
    A[13]     R23       9
    A[13]     R24       -1
    A[13]     R25       12784
    A[13]     R26       52836
    A[13]     R27       177072
    A[13]     R28       481576
    A[13]     R29       1080656
    A[13]     R30       2042142
    A[13]     R31       3271072
    A[13]     R32       4456720
    A[13]     R33       5197920
    A[13]     R34       5202680
    A[13]     R35       4458080
    A[13]     R36       3266448
    A[13]     R37       2043808
    A[13]     R38       1074302
    A[13]     R39       479824
    A[13]     R40       177128
    A[13]     R41       53424
    A[13]     R42       12516
    A[13]     R43       2288
    A[13]     R44       328
    A[13]     R45       16
    A[13]     R46       2
    A[13]     R47       1
    A[13]     R48       1
    A[14]     OBJ       1
    A[14]     R0        -11
    A[14]     R1        48
    A[14]     R2        -88
    A[14]     R3        -34
    A[14]     R4        462
    A[14]     R5        -728
    A[14]     R6        -176
    A[14]     R7        1971
    A[14]     R8        -2057
    A[14]     R9        -1088
    A[14]     R10       4080
    A[14]     R11       -2380
    A[14]     R12       -2380
    A[14]     R13       4080
    A[14]     R14       -1088
    A[14]     R15       -2057
    A[14]     R16       1971
    A[14]     R17       -176
    A[14]     R18       -728
    A[14]     R19       462
    A[14]     R20       -34
    A[14]     R21       -88
    A[14]     R22       48
    A[14]     R23       -11
    A[14]     R24       1
    A[14]     R25       12684
    A[14]     R26       52668
    A[14]     R27       177828
    A[14]     R28       480876
    A[14]     R29       1079604
    A[14]     R30       2045032
    A[14]     R31       3269848
    A[14]     R32       4453320
    A[14]     R33       5202680
    A[14]     R34       5202680
    A[14]     R35       4453320
    A[14]     R36       3269848
    A[14]     R37       2045032
    A[14]     R38       1079604
    A[14]     R39       472684
    A[14]     R40       177828
    A[14]     R41       52668
    A[14]     R42       12684
    A[14]     R43       2388
    A[14]     R44       252
    A[14]     R45       36
    A[14]     R47       1
    A[14]     R48       1
    A[15]     OBJ       1
    A[15]     R0        -13
    A[15]     R1        72
    A[15]     R2        -208
    A[15]     R3        262
    A[15]     R4        234
    A[15]     R5        -1424
    A[15]     R6        1976
    A[15]     R7        171
    A[15]     R8        -4199
    A[15]     R9        5168
    A[15]     R11       -6460
    A[15]     R12       6460
    A[15]     R14       -5168
    A[15]     R15       4199
    A[15]     R16       -171
    A[15]     R17       -1976
    A[15]     R18       1424
    A[15]     R19       -234
    A[15]     R20       -262
    A[15]     R21       208
    A[15]     R22       -72
    A[15]     R23       13
    A[15]     R24       -1
    A[15]     R25       12388
    A[15]     R26       52896
    A[15]     R27       178524
    A[15]     R28       478724
    A[15]     R29       1081404
    A[15]     R30       2047174
    A[15]     R31       3263592
    A[15]     R32       4457400
    A[15]     R33       5206760
    A[15]     R34       5193840
    A[15]     R35       4457400
    A[15]     R36       3273928
    A[15]     R37       2038776
    A[15]     R38       1081746
    A[15]     R39       482676
    A[15]     R40       167484
    A[15]     R41       53364
    A[15]     R42       12912
    A[15]     R43       2092
    A[15]     R44       372
    A[15]     R45       12
    A[15]     R46       2
    A[15]     R47       1
    A[15]     R48       1
    A[16]     OBJ       1
    A[16]     R0        -15
    A[16]     R1        100
    A[16]     R2        -380
    A[16]     R3        850
    A[16]     R4        -878
    A[16]     R5        -780
    A[16]     R6        4180
    A[16]     R7        -5985
    A[16]     R8        1615
    A[16]     R9        7752
    A[16]     R10       -12920
    A[16]     R11       6460
    A[16]     R12       6460
    A[16]     R13       -12920
    A[16]     R14       7752
    A[16]     R15       1615
    A[16]     R16       -5985
    A[16]     R17       4180
    A[16]     R18       -780
    A[16]     R19       -878
    A[16]     R20       850
    A[16]     R21       -380
    A[16]     R22       100
    A[16]     R23       -15
    A[16]     R24       1
    A[16]     R25       11800
    A[16]     R26       54008
    A[16]     R27       177880
    A[16]     R28       476520
    A[16]     R29       1087560
    A[16]     R30       2041360
    A[16]     R31       3261008
    A[16]     R32       4470320
    A[16]     R33       5193840
    A[16]     R34       5193840
    A[16]     R35       4470320
    A[16]     R36       3261008
    A[16]     R37       2041360
    A[16]     R38       1087560
    A[16]     R39       476520
    A[16]     R40       177880
    A[16]     R41       45816
    A[16]     R42       11800
    A[16]     R43       2680
    A[16]     R44       200
    A[16]     R45       40
    A[16]     R47       1
    A[16]     R48       1
    A[17]     OBJ       1
    A[17]     R0        -17
    A[17]     R1        132
    A[17]     R2        -612
    A[17]     R3        1842
    A[17]     R4        -3570
    A[17]     R5        3668
    A[17]     R6        1292
    A[17]     R7        -11457
    A[17]     R8        19057
    A[17]     R9        -12920
    A[17]     R10       -7752
    A[17]     R11       27132
    A[17]     R12       -27132
    A[17]     R13       7752
    A[17]     R14       12920
    A[17]     R15       -19057
    A[17]     R16       11457
    A[17]     R17       -1292
    A[17]     R18       -3668
    A[17]     R19       3570
    A[17]     R20       -1842
    A[17]     R21       612
    A[17]     R22       -132
    A[17]     R23       17
    A[17]     R24       -1
    A[17]     R25       10808
    A[17]     R26       56700
    A[17]     R27       173432
    A[17]     R28       479408
    A[17]     R29       1093032
    A[17]     R30       2023918
    A[17]     R31       3281680
    A[17]     R32       4465152
    A[17]     R33       5173168
    A[17]     R34       5227432
    A[17]     R35       4449648
    A[17]     R36       3255840
    A[17]     R37       2062032
    A[17]     R38       1070118
    A[17]     R39       481992
    A[17]     R40       180768
    A[17]     R41       49560
    A[17]     R42       6300
    A[17]     R43       1688
    A[17]     R44       432
    A[17]     R45       8
    A[17]     R46       2
    A[17]     R47       1
    A[17]     R48       1
    A[18]     OBJ       1
    A[18]     R0        -19
    A[18]     R1        168
    A[18]     R2        -912
    A[18]     R3        3366
    A[18]     R4        -8778
    A[18]     R5        16016
    A[18]     R6        -18392
    A[18]     R7        5643
    A[18]     R8        24871
    A[18]     R9        -56848
    A[18]     R10       62016
    A[18]     R11       -27132
    A[18]     R12       -27132
    A[18]     R13       62016
    A[18]     R14       -56848
    A[18]     R15       24871
    A[18]     R16       5643
    A[18]     R17       -18392
    A[18]     R18       16016
    A[18]     R19       -8778
    A[18]     R20       3366
    A[18]     R21       -912
    A[18]     R22       168
    A[18]     R23       -19
    A[18]     R24       1
    A[18]     R25       9284
    A[18]     R26       61908
    A[18]     R27       161084
    A[18]     R28       499092
    A[18]     R29       1075932
    A[18]     R30       2018104
    A[18]     R31       3325608
    A[18]     R32       4395384
    A[18]     R33       5227432
    A[18]     R34       5227432
    A[18]     R35       4395384
    A[18]     R36       3325608
    A[18]     R37       2018104
    A[18]     R38       1075932
    A[18]     R39       499092
    A[18]     R40       161084
    A[18]     R41       61908
    A[18]     R42       9284
    A[18]     R43       -4980
    A[18]     R44       132
    A[18]     R45       44
    A[18]     R47       1
    A[18]     R48       1
    A[19]     OBJ       1
    A[19]     R0        -21
    A[19]     R1        208
    A[19]     R2        -1288
    A[19]     R3        5566
    A[19]     R4        -17710
    A[19]     R5        42504
    A[19]     R6        -76912
    A[19]     R7        100947
    A[19]     R8        -81719
    A[19]     R10       118864
    A[19]     R11       -208012
    A[19]     R12       208012
    A[19]     R13       -118864
    A[19]     R15       81719
    A[19]     R16       -100947
    A[19]     R17       76912
    A[19]     R18       -42504
    A[19]     R19       17710
    A[19]     R20       -5566
    A[19]     R21       1288
    A[19]     R22       -208
    A[19]     R23       21
    A[19]     R24       -1
    A[19]     R25       7084
    A[19]     R26       70840
    A[19]     R27       134596
    A[19]     R28       557612
    A[19]     R29       980628
    A[19]     R30       2124694
    A[19]     R31       3268760
    A[19]     R32       4338536
    A[19]     R33       5408312
    A[19]     R34       4992288
    A[19]     R35       4576264
    A[19]     R36       3268760
    A[19]     R37       1961256
    A[19]     R38       1182522
    A[19]     R39       403788
    A[19]     R40       219604
    A[19]     R41       35420
    A[19]     R42       18216
    A[19]     R43       1012
    A[19]     R44       -7684
    A[19]     R45       4
    A[19]     R46       2
    A[19]     R47       1
    A[19]     R48       1
    A[20]     OBJ       1
    A[20]     R0        -23
    A[20]     R1        252
    A[20]     R2        -1748
    A[20]     R3        8602
    A[20]     R4        -31878
    A[20]     R5        92092
    A[20]     R6        -211508
    A[20]     R7        389367
    A[20]     R8        -572033
    A[20]     R9        653752
    A[20]     R10       -534888
    A[20]     R11       208012
    A[20]     R12       208012
    A[20]     R13       -534888
    A[20]     R14       653752
    A[20]     R15       -572033
    A[20]     R16       389367
    A[20]     R17       -211508
    A[20]     R18       92092
    A[20]     R19       -31878
    A[20]     R20       8602
    A[20]     R21       -1748
    A[20]     R22       252
    A[20]     R23       -23
    A[20]     R24       1
    A[20]     R25       4048
    A[20]     R26       85008
    A[20]     R27       85008
    A[20]     R28       692208
    A[20]     R29       692208
    A[20]     R30       2615008
    A[20]     R31       2615008
    A[20]     R32       4992288
    A[20]     R33       4992288
    A[20]     R34       4992288
    A[20]     R35       4992288
    A[20]     R36       2615008
    A[20]     R37       2615008
    A[20]     R38       692208
    A[20]     R39       692208
    A[20]     R40       85008
    A[20]     R41       85008
    A[20]     R42       4048
    A[20]     R43       4048
    A[20]     R44       48
    A[20]     R45       -8144
    A[20]     R47       1
    A[20]     R48       1
    A[21]     OBJ       1
    A[21]     R0        -25
    A[21]     R1        300
    A[21]     R2        -2300
    A[21]     R3        12650
    A[21]     R4        -53130
    A[21]     R5        177100
    A[21]     R6        -480700
    A[21]     R7        1081575
    A[21]     R8        -2042975
    A[21]     R9        3268760
    A[21]     R10       -4457400
    A[21]     R11       5200300
    A[21]     R12       -5200300
    A[21]     R13       4457400
    A[21]     R14       -3268760
    A[21]     R15       2042975
    A[21]     R16       -1081575
    A[21]     R17       480700
    A[21]     R18       -177100
    A[21]     R19       53130
    A[21]     R20       -12650
    A[21]     R21       2300
    A[21]     R22       -300
    A[21]     R23       25
    A[21]     R24       -1
    A[21]     R26       106260
    A[21]     R28       961400
    A[21]     R30       4085950
    A[21]     R32       8914800
    A[21]     R34       10400600
    A[21]     R36       6537520
    A[21]     R38       2163150
    A[21]     R40       354200
    A[21]     R42       25300
    A[21]     R44       600
    A[21]     R46       -8190
    A[21]     R47       1
    A[21]     R48       1
    MARKER    'MARKER'                 'INTEND'
RHS
    RHS1      R0        -25
    RHS1      R1        -300
    RHS1      R2        -2300
    RHS1      R3        -12650
    RHS1      R4        -53130
    RHS1      R5        -177100
    RHS1      R6        -480700
    RHS1      R7        -1081575
    RHS1      R8        -2042975
    RHS1      R9        -3268760
    RHS1      R10       -4457400
    RHS1      R11       -5200300
    RHS1      R12       -5200300
    RHS1      R13       -4457400
    RHS1      R14       -3268760
    RHS1      R15       -2042975
    RHS1      R16       -1081575
    RHS1      R17       -480700
    RHS1      R18       -177100
    RHS1      R19       -53130
    RHS1      R20       -12650
    RHS1      R21       -2300
    RHS1      R22       -300
    RHS1      R23       -25
    RHS1      R24       -1
    RHS1      R47       8192
    RHS1      R48       1048576
BOUNDS
 UP BND1      A[0]      12650
 UP BND1      A[1]      53130
 UP BND1      A[2]      177100
 UP BND1      A[3]      480700
 UP BND1      A[4]      1081575
 UP BND1      A[5]      2042975
 UP BND1      A[6]      3268760
 UP BND1      A[7]      4457400
 UP BND1      A[8]      5200300
 UP BND1      A[9]      5200300
 UP BND1      A[10]     4457400
 UP BND1      A[11]     3268760
 UP BND1      A[12]     2042975
 UP BND1      A[13]     1081575
 UP BND1      A[14]     480700
 UP BND1      A[15]     177100
 UP BND1      A[16]     53130
 UP BND1      A[17]     12650
 UP BND1      A[18]     2300
 UP BND1      A[19]     300
 UP BND1      A[20]     25
 UP BND1      A[21]     1
ENDATA
